c1_10_3

VEHICLE
NUMBER   CAPACITY
250     200

CUSTOMER
CUST NO. XCOORD.  YCOORD.  DEMAND  READY TIME DUE DATE  SERVICE TIME

0   250    250     0     0    1824     0
429 132 30 20 875 926 90
822 105 27 10 0 1469 90
830 102 27 20 796 852 90
907 136 52 10 759 817 90
842 105 22 30 339 385 90
872 102 29 30 0 1469 90
749 133 26 10 0 1482 90
351 125 39 20 245 318 90
852 132 55 10 573 632 90
382 124 56 20 0 1503 90
428 133 53 20 0 1505 90
903 107 35 30 986 1041 90
596 129 27 10 0 1481 90
475 126 30 10 495 558 90
708 132 57 20 396 443 90
675 107 26 10 0 1469 90
190 111 23 10 266 326 90
235 125 29 30 0 1481 90
682 125 32 30 407 462 90
127 122 35 10 0 1484 90
784 130 57 40 289 365 90
50 108 26 10 423 491 90
459 104 28 20 0 1469 90
460 131 56 10 0 1507 90
